Route #1: 1 42 37 7 26 31 19 21 41 45 1
Route #2: 1 14 47 27 23 18 50 20 35 16 39 1
Route #3: 1 48 38 11 30 9 6 8 34 1
Route #4: 1 49 3 17 10 33 5 46 13 24 1
Route #5: 1 15 40 25 32 29 12 22 4 51 1
Route #6: 1 52 28 2 43 36 1
Route #7: 1 44 1
cost 950
